NAME : instances/50-tsp/instance-0.tsp
COMMENT : No comment
TYPE : TSP
DIMENSION: 50
EDGE_WEIGHT_TYPE : EUC_2D
NODE_COORD_SECTION
1 1296 843 
2 648 760 
3 248 1170 
4 760 711 
5 968 108 
6 1687 1942 
7 1721 1107 
8 1348 1015 
9 1291 865 
10 898 1859 
11 1156 1986 
12 1118 1362 
13 1796 1885 
14 490 1189 
15 1931 441 
16 668 81 
17 1491 1030 
18 1054 174 
19 1378 1202 
20 174 1063 
21 1263 394 
22 331 416 
23 1252 1786 
24 970 1300 
25 1221 1728 
26 1779 1165 
27 776 1265 
28 1906 917 
29 164 1748 
30 1109 1628 
31 1590 1497 
32 855 1829 
33 271 1945 
34 542 718 
35 223 1510 
36 788 1303 
37 656 1657 
38 552 1030 
39 589 1268 
40 847 331 
41 823 1561 
42 1334 569 
43 244 1196 
44 737 1946 
45 1195 1023 
46 298 1805 
47 975 256 
48 1518 1112 
49 449 449 
50 62 1075 
EOF
